language Essence 1.3

letting class be function(1 --> 1, 2 --> 1, 3 --> 1, 4 --> 1, 5 --> 1)
letting deck_length be 11
letting deck_width be 97
letting length be function(1 --> 3, 2 --> 11, 3 --> 2, 4 --> 8, 5 --> 8)
letting n_classes be 1
letting n_containers be 5
letting separation be function()
letting width be function(1 --> 3, 2 --> 22, 3 --> 1, 4 --> 41, 5 --> 2)
